NAME: cuum360.tsp
TYPE: TSP
COMMENT: User-generated TSP file
DIMENSION: 360
EDGE_WEIGHT_TYPE: EUC_2D
NODE_COORD_SECTION
1 303.0 27.0
2 287.0 354.0
3 336.0 170.0
4 102.0 211.0
5 108.0 176.0
6 46.0 77.0
7 87.0 236.0
8 6.0 280.0
9 233.0 230.0
10 4.0 298.0
11 267.0 151.0
12 85.0 158.0
13 18.0 134.0
14 292.0 314.0
15 50.0 91.0
16 238.0 249.0
17 325.0 119.0
18 214.0 193.0
19 333.0 10.0
20 314.0 273.0
21 183.0 324.0
22 357.0 297.0
23 130.0 296.0
24 341.0 121.0
25 147.0 206.0
26 109.0 16.0
27 351.0 209.0
28 286.0 249.0
29 355.0 341.0
30 193.0 203.0
31 158.0 264.0
32 20.0 278.0
33 261.0 98.0
34 157.0 34.0
35 338.0 148.0
36 91.0 101.0
37 51.0 16.0
38 169.0 108.0
39 278.0 269.0
40 343.0 86.0
41 23.0 357.0
42 34.0 55.0
43 138.0 97.0
44 143.0 289.0
45 38.0 77.0
46 92.0 242.0
47 340.0 291.0
48 247.0 201.0
49 343.0 258.0
50 100.0 107.0
51 260.0 214.0
52 151.0 197.0
53 161.0 5.0
54 28.0 163.0
55 84.0 347.0
56 297.0 133.0
57 257.0 199.0
58 92.0 119.0
59 160.0 294.0
60 48.0 100.0
61 304.0 311.0
62 87.0 69.0
63 297.0 106.0
64 168.0 167.0
65 90.0 294.0
66 332.0 352.0
67 6.0 265.0
68 217.0 138.0
69 147.0 251.0
70 262.0 218.0
71 21.0 132.0
72 335.0 297.0
73 266.0 270.0
74 259.0 186.0
75 189.0 185.0
76 278.0 26.0
77 280.0 356.0
78 247.0 208.0
79 316.0 309.0
80 30.0 222.0
81 358.0 250.0
82 201.0 344.0
83 241.0 313.0
84 338.0 341.0
85 72.0 33.0
86 356.0 20.0
87 39.0 155.0
88 316.0 122.0
89 255.0 198.0
90 128.0 7.0
91 147.0 333.0
92 9.0 297.0
93 91.0 154.0
94 237.0 109.0
95 351.0 354.0
96 150.0 175.0
97 19.0 169.0
98 89.0 153.0
99 170.0 95.0
100 57.0 223.0
101 101.0 319.0
102 40.0 263.0
103 305.0 61.0
104 334.0 255.0
105 87.0 325.0
106 260.0 6.0
107 294.0 60.0
108 253.0 34.0
109 59.0 40.0
110 58.0 218.0
111 308.0 41.0
112 343.0 213.0
113 249.0 245.0
114 161.0 196.0
115 92.0 196.0
116 138.0 42.0
117 132.0 312.0
118 345.0 109.0
119 209.0 348.0
120 167.0 229.0
121 159.0 152.0
122 24.0 107.0
123 206.0 253.0
124 101.0 277.0
125 253.0 261.0
126 230.0 332.0
127 327.0 227.0
128 279.0 247.0
129 242.0 138.0
130 304.0 181.0
131 210.0 6.0
132 88.0 247.0
133 149.0 324.0
134 189.0 8.0
135 122.0 96.0
136 173.0 29.0
137 20.0 315.0
138 271.0 275.0
139 116.0 155.0
140 279.0 250.0
141 127.0 254.0
142 37.0 12.0
143 49.0 33.0
144 294.0 6.0
145 152.0 323.0
146 125.0 299.0
147 8.0 210.0
148 344.0 77.0
149 79.0 108.0
150 103.0 198.0
151 51.0 282.0
152 273.0 177.0
153 47.0 212.0
154 162.0 315.0
155 101.0 250.0
156 255.0 89.0
157 189.0 142.0
158 87.0 109.0
159 138.0 71.0
160 195.0 304.0
161 359.0 312.0
162 121.0 77.0
163 237.0 238.0
164 315.0 244.0
165 77.0 55.0
166 40.0 83.0
167 341.0 85.0
168 277.0 86.0
169 147.0 35.0
170 228.0 222.0
171 133.0 183.0
172 246.0 344.0
173 304.0 353.0
174 144.0 125.0
175 60.0 135.0
176 309.0 210.0
177 137.0 39.0
178 31.0 352.0
179 44.0 81.0
180 142.0 162.0
181 314.0 336.0
182 282.0 114.0
183 251.0 161.0
184 141.0 268.0
185 261.0 169.0
186 26.0 222.0
187 261.0 269.0
188 224.0 134.0
189 219.0 287.0
190 138.0 298.0
191 47.0 165.0
192 67.0 224.0
193 92.0 123.0
194 65.0 322.0
195 244.0 307.0
196 328.0 336.0
197 84.0 36.0
198 52.0 359.0
199 342.0 32.0
200 180.0 10.0
201 296.0 33.0
202 78.0 330.0
203 74.0 85.0
204 202.0 211.0
205 177.0 233.0
206 284.0 71.0
207 257.0 190.0
208 17.0 330.0
209 166.0 41.0
210 351.0 255.0
211 175.0 354.0
212 339.0 191.0
213 299.0 286.0
214 163.0 24.0
215 242.0 279.0
216 199.0 328.0
217 229.0 359.0
218 37.0 267.0
219 17.0 45.0
220 290.0 241.0
221 158.0 39.0
222 156.0 354.0
223 182.0 292.0
224 96.0 306.0
225 341.0 173.0
226 120.0 131.0
227 285.0 287.0
228 25.0 248.0
229 136.0 47.0
230 32.0 268.0
231 75.0 348.0
232 77.0 249.0
233 284.0 119.0
234 139.0 141.0
235 255.0 121.0
236 79.0 305.0
237 80.0 8.0
238 289.0 179.0
239 257.0 288.0
240 116.0 143.0
241 187.0 298.0
242 216.0 153.0
243 48.0 48.0
244 192.0 213.0
245 319.0 287.0
246 223.0 137.0
247 34.0 72.0
248 168.0 201.0
249 275.0 306.0
250 149.0 339.0
251 221.0 149.0
252 331.0 163.0
253 41.0 314.0
254 72.0 178.0
255 69.0 238.0
256 277.0 71.0
257 83.0 78.0
258 254.0 273.0
259 149.0 219.0
260 235.0 54.0
261 35.0 335.0
262 82.0 237.0
263 344.0 254.0
264 357.0 301.0
265 347.0 52.0
266 190.0 144.0
267 231.0 240.0
268 203.0 278.0
269 133.0 140.0
270 95.0 61.0
271 172.0 244.0
272 200.0 237.0
273 144.0 183.0
274 13.0 59.0
275 115.0 279.0
276 151.0 182.0
277 323.0 151.0
278 301.0 161.0
279 322.0 69.0
280 231.0 347.0
281 147.0 111.0
282 197.0 336.0
283 335.0 126.0
284 254.0 150.0
285 278.0 39.0
286 108.0 344.0
287 88.0 349.0
288 309.0 328.0
289 198.0 186.0
290 347.0 93.0
291 40.0 329.0
292 342.0 57.0
293 165.0 28.0
294 202.0 77.0
295 139.0 257.0
296 14.0 116.0
297 175.0 247.0
298 234.0 337.0
299 79.0 203.0
300 33.0 103.0
301 116.0 88.0
302 90.0 180.0
303 106.0 14.0
304 242.0 104.0
305 220.0 21.0
306 358.0 205.0
307 68.0 79.0
308 35.0 227.0
309 278.0 162.0
310 207.0 202.0
311 88.0 115.0
312 110.0 18.0
313 110.0 116.0
314 103.0 109.0
315 233.0 82.0
316 56.0 334.0
317 42.0 81.0
318 22.0 271.0
319 97.0 263.0
320 37.0 360.0
321 54.0 12.0
322 99.0 345.0
323 6.0 35.0
324 89.0 186.0
325 259.0 264.0
326 205.0 350.0
327 56.0 34.0
328 143.0 8.0
329 217.0 147.0
330 147.0 201.0
331 22.0 329.0
332 297.0 230.0
333 76.0 140.0
334 203.0 245.0
335 108.0 113.0
336 192.0 332.0
337 60.0 214.0
338 299.0 174.0
339 242.0 10.0
340 28.0 172.0
341 222.0 351.0
342 360.0 85.0
343 140.0 167.0
344 65.0 82.0
345 210.0 133.0
346 195.0 253.0
347 261.0 70.0
348 165.0 216.0
349 312.0 167.0
350 280.0 63.0
351 136.0 90.0
352 51.0 164.0
353 303.0 134.0
354 218.0 312.0
355 270.0 73.0
356 290.0 29.0
357 234.0 144.0
358 30.0 96.0
359 84.0 222.0
360 261.0 53.0
EOF





